c preprocessed version of 8x6_torusGrid, 48 vertices, 96 edges
p td 48 96
0 1
0 5
0 6
0 42
1 2
1 7
1 43
2 3
2 8
2 44
3 4
3 9
3 45
4 5
4 10
4 46
5 11
5 47
6 7
6 11
6 12
7 8
7 13
8 9
8 14
9 10
9 15
10 11
10 16
11 17
12 13
12 17
12 18
13 14
13 19
14 15
14 20
15 16
15 21
16 17
16 22
17 23
18 19
18 23
18 24
19 20
19 25
20 21
20 26
21 22
21 27
22 23
22 28
23 29
24 25
24 29
24 30
25 26
25 31
26 27
26 32
27 28
27 33
28 29
28 34
29 35
30 31
30 35
30 36
31 32
31 37
32 33
32 38
33 34
33 39
34 35
34 40
35 41
36 37
36 41
36 42
37 38
37 43
38 39
38 44
39 40
39 45
40 41
40 46
41 47
42 43
42 47
43 44
44 45
45 46
46 47
